c instance by G2
c solution = 110001000
c Known solution cost is 569 
p cnf 9 30
w 88 87 43 96 70 3 18 96 68
8 -4 -2 0
-4 -9 -6 0
3 -4 7 0
-9 -2 3 0
-2 6 7 0
-2 -8 -1 0
-1 5 6 0
-3 2 1 0
2 -5 9 0
9 -7 -6 0
7 -5 6 0
-6 4 2 0
-5 -7 -6 0
-4 -9 -1 0
7 1 -6 0
9 -5 8 0
1 4 -8 0
5 9 2 0
-9 7 4 0
-5 1 -8 0
-1 7 -9 0
5 -2 -7 0
1 9 5 0
-5 -7 8 0
-8 -3 9 0
-8 -3 -7 0
4 6 -2 0
8 -3 4 0
8 6 -4 0
-4 -5 3 0
